
  22   10
  10   10   10   10   10   10   10   10   10   10

   0   0   0   0   0   0   0   0   0   0   0   1 2 
   9   0   0   0   0   0   0  10   0   0   0   1 3 
   1   0   0   0   0   0   0   0   0  10   0   1 4 
   9   0  10   0   0   0   0   0   0   0   0   1 5 
   9  10   0   0   0   0   0   0   0   0   0   1 6 
   2   0   0   0   0   0   0   0   0   0  10   1 7 
   4   0   0   0   0   0   0   0   0  10   0   1 8 
   1   0   0  10   0   0   0   0   0   0   0   1 9 
   4   0   0   0  10   0   0   0   0   0   0   1 10 
   9   0   0   0  10   0   0   0   0   0   0   1 11 
   1   0   0   0   0  10   0   0   0   0   0   1 12 
  10   0   0   0   0   0   0   0  10   0   0   1 13 
   3   0   0   0   0   0   0  10   0   0   0   1 14 
   9   0   0   0  10   0   0   0   0   0   0   1 15 
  10   0   0   0  10   0   0   0   0   0   0   2 17 16 
   7   0   0   0   0   0   0  10   0   0   0   2 21 18 
   4  10   0   0   0   0   0   0   0   0   0   2 21 20 
   4   0   0   0   0   0   0  10   0   0   0   1 19 
   9   0   0   0   0   0  10   0   0   0   0   1 20 
   5   0   0   0   0   0   0   0  10   0   0   1 22
   6   0   0   0   0   0   0   0  10   0   0   1 22
   0   0   0   0   0   0   0   0   0   0   0   0 
